% Logging successfully configured
%%%mzn-stat: initTime=0.02423728
%%%mzn-stat: objective=419
%%%mzn-stat: nodes=606
%%%mzn-stat: restarts=0
%%%mzn-stat: peakDepth=593
%%%mzn-stat: solveTime=0.001386206
%%%mzn-stat: variables=1113
%%%mzn-stat: propagators=2041
%%%mzn-stat: failures=8
%%%mzn-stat: propagations=8502
%%%mzn-stat: nogoods=8
%%%mzn-stat: numAtomicConstraintsPropagated=0
%%%mzn-stat: circuitNumber1226PropagationsThatFoundConflict=1
%%%mzn-stat: circuitNumber1226TotalFixedEdgesAtConflict=37
%%%mzn-stat: circuitNumber1226NumberOfConflicts=1
%%%mzn-stat: circuitNumber1226PropagationsThatPruned=4
%%%mzn-stat: circuitNumber1226PropagationsTotal=54
%%%mzn-stat: AverageConflictSize=2.25
%%%mzn-stat: NumUnitNogoodsLearned=0
%%%mzn-stat: AverageLearnedNogoodLength=8.5
%%%mzn-stat: AverageBacktrackAmount=0
%%%mzn-stat: AverageLbd=5.125
%%%mzn-stat: 2AutonomousSearchNumBackupCalled=552
%%%mzn-stat: 2AutonomousSearchNumPredicatesRemoved=0
%%%mzn-stat: 2AutonomousSearchNumCalls=553
%%%mzn-stat: 2AutonomousSearchNumPredicatesAdded=253
%%%mzn-stat: 2AutonomousSearchAverageSizeOfHeap=0.45750452079566006
%%%mzn-stat: 2AutonomousSearchNumAssignedPredicatesEncountered=253
%%%mzn-stat-end
maxleg = 419;
succ = array1d(1..50,[2, 4, 7, 3, 8, 12, 5, 13, 11, 14, 1, 9, 20, 16, 28, 19, 22, 6, 21, 15, 24, 18, 25, 29, 10, 34, 23, 32, 38, 47, 33, 30, 36, 27, 42, 35, 26, 45, 37, 46, 39, 44, 41, 43, 49, 31, 50, 17, 48, 40]);
% time elapsed: 11.94 s
----------
%%%mzn-stat: initTime=0.02423728
%%%mzn-stat: objective=406
%%%mzn-stat: nodes=2225
%%%mzn-stat: restarts=0
%%%mzn-stat: peakDepth=593
%%%mzn-stat: solveTime=0.080334832
%%%mzn-stat: variables=1113
%%%mzn-stat: propagators=2041
%%%mzn-stat: failures=920
%%%mzn-stat: propagations=235985
%%%mzn-stat: nogoods=920
%%%mzn-stat: numAtomicConstraintsPropagated=0
%%%mzn-stat: circuitNumber1226PropagationsThatFoundConflict=24
%%%mzn-stat: circuitNumber1226TotalFixedEdgesAtConflict=972
%%%mzn-stat: circuitNumber1226NumberOfConflicts=24
%%%mzn-stat: circuitNumber1226PropagationsThatPruned=139
%%%mzn-stat: circuitNumber1226PropagationsTotal=938
%%%mzn-stat: AverageConflictSize=5.815217391304348
%%%mzn-stat: NumUnitNogoodsLearned=0
%%%mzn-stat: AverageLearnedNogoodLength=25.090217391304346
%%%mzn-stat: AverageBacktrackAmount=0
%%%mzn-stat: AverageLbd=10.378260869565217
%%%mzn-stat: 2AutonomousSearchNumBackupCalled=1100
%%%mzn-stat: 2AutonomousSearchNumPredicatesRemoved=0
%%%mzn-stat: 2AutonomousSearchNumCalls=1102
%%%mzn-stat: 2AutonomousSearchNumPredicatesAdded=1287
%%%mzn-stat: 2AutonomousSearchAverageSizeOfHeap=1.177858439201452
%%%mzn-stat: 2AutonomousSearchNumAssignedPredicatesEncountered=1298
%%%mzn-stat-end
maxleg = 406;
succ = array1d(1..50,[2, 4, 7, 3, 8, 12, 5, 13, 11, 14, 1, 9, 20, 16, 28, 19, 22, 6, 21, 15, 24, 18, 25, 29, 10, 34, 23, 32, 42, 50, 33, 45, 36, 37, 27, 35, 39, 47, 48, 46, 26, 44, 41, 43, 49, 31, 30, 17, 38, 40]);
% time elapsed: 12.00 s
----------
%%%mzn-stat: initTime=0.02423728
%%%mzn-stat: objective=389
%%%mzn-stat: nodes=4681984
%%%mzn-stat: restarts=0
%%%mzn-stat: peakDepth=593
%%%mzn-stat: solveTime=972.50031432
%%%mzn-stat: variables=1113
%%%mzn-stat: propagators=2041
%%%mzn-stat: failures=4201902
%%%mzn-stat: propagations=1006798917
%%%mzn-stat: nogoods=4201902
%%%mzn-stat: numAtomicConstraintsPropagated=0
%%%mzn-stat: circuitNumber1226PropagationsThatFoundConflict=32962
%%%mzn-stat: circuitNumber1226TotalFixedEdgesAtConflict=1295524
%%%mzn-stat: circuitNumber1226NumberOfConflicts=32962
%%%mzn-stat: circuitNumber1226PropagationsThatPruned=397033
%%%mzn-stat: circuitNumber1226PropagationsTotal=3671446
%%%mzn-stat: AverageConflictSize=21.15482226858218
%%%mzn-stat: NumUnitNogoodsLearned=0
%%%mzn-stat: AverageLearnedNogoodLength=45.215868908889355
%%%mzn-stat: AverageBacktrackAmount=0
%%%mzn-stat: AverageLbd=15.533108339985082
%%%mzn-stat: 2AutonomousSearchNumBackupCalled=1600
%%%mzn-stat: 2AutonomousSearchNumPredicatesRemoved=0
%%%mzn-stat: 2AutonomousSearchNumCalls=1603
%%%mzn-stat: 2AutonomousSearchNumPredicatesAdded=2921
%%%mzn-stat: 2AutonomousSearchAverageSizeOfHeap=1.8895820336868372
%%%mzn-stat: 2AutonomousSearchNumAssignedPredicatesEncountered=3029
%%%mzn-stat-end
maxleg = 389;
succ = array1d(1..50,[2, 4, 7, 3, 8, 12, 5, 13, 11, 14, 1, 9, 20, 16, 28, 19, 22, 6, 21, 15, 24, 45, 25, 29, 10, 18, 23, 48, 32, 50, 35, 30, 31, 26, 27, 42, 34, 47, 37, 33, 39, 44, 41, 43, 49, 36, 40, 17, 38, 46]);
% time elapsed: 984.42 s
----------
=====ERROR=====
% time elapsed: 1213.17 s
